Title                                   
   1.00000000000000     
    10.3350000000000009    0.0000000000000000    0.0000000000000000
    -5.1675000000000004    8.9503730000000008    0.0000000000000000
     0.0000000000000000    0.0000000000000000   12.5500000000000007
   Nb   Se   Co
    18    36     1
Direct
  0.0000000000000000  0.0000000000000000  0.2529050117272660
  0.3346696199888384  0.0037557713269561  0.2552481342641269
  0.9962442286730437  0.3309138486618822  0.2552481342641269
  0.3346696199888384  0.3309138486618822  0.2552481342641269
  0.6690860913381198  0.0037557713269561  0.2552481342641269
  0.9962442286730437  0.6653303200111637  0.2552481342641269
  0.3333333100000004  0.6666666300000017  0.2530043169586694
  0.6666666300000017  0.3333333100000004  0.2589982588996605
  0.6690860913381198  0.6653303200111637  0.2552481342641269
  0.0000000000000000  0.0000000000000000  0.7470949182727354
  0.3309138486618822  0.9962442286730437  0.7447517957358746
  0.0037557713269561  0.3346696199888384  0.7447517957358746
  0.3309138486618822  0.3346696199888384  0.7447517957358746
  0.6653303200111637  0.9962442286730437  0.7447517957358746
  0.0037557713269561  0.6690860913381198  0.7447517957358746
  0.3333333100000004  0.6666666300000017  0.7410016711003411
  0.6666666300000017  0.3333333100000004  0.7469956130413319
  0.6653303200111637  0.6690860913381198  0.7447517957358746
  0.1116448383139215  0.2232896866278297  0.1224476770847825
  0.4441416716426098  0.2220708358213049  0.1213876721732944
  0.1088622557717713  0.5544310978858832  0.1223037372623271
  0.4455688421141190  0.5544310978858832  0.1223037372623271
  0.7779291041786899  0.2220708358213049  0.1213876721732944
  0.1116448383139215  0.8883551016860807  0.1224476770847825
  0.4455688421141190  0.8911376842282309  0.1223037372623271
  0.7779291041786899  0.5558582683573924  0.1213876721732944
  0.7767102533721651  0.8883551016860807  0.1224476770847825
  0.1108599222813861  0.2217198545627659  0.3864307217001888
  0.4460491757010918  0.2230245878505388  0.3888318580222401
  0.1106124343114386  0.5553061871557168  0.3851505795848503
  0.4446937528442853  0.5553061871557168  0.3851505795848503
  0.7769753521494562  0.2230245878505388  0.3888318580222401
  0.1108599222813861  0.8891400177186162  0.3864307217001888
  0.4446937528442853  0.8893875056885635  0.3851505795848503
  0.7769753521494562  0.5539507642989104  0.3888318580222401
  0.7782800854372293  0.8891400177186162  0.3864307217001888
  0.2232896866278297  0.1116448383139215  0.8775522829152211
  0.5544310978858832  0.1088622557717713  0.8776962227376766
  0.2220708358213049  0.4441416716426098  0.8786122878267095
  0.5544310978858832  0.4455688421141190  0.8776962227376766
  0.8883551016860807  0.1116448383139215  0.8775522829152211
  0.2220708358213049  0.7779291041786899  0.8786122878267095
  0.5558582683573924  0.7779291041786899  0.8786122878267095
  0.8911376842282309  0.4455688421141190  0.8776962227376766
  0.8883551016860807  0.7767102533721651  0.8775522829152211
  0.2217198545627659  0.1108599222813861  0.6135691582998157
  0.5553061871557168  0.1106124343114386  0.6148493004151540
  0.2230245878505388  0.4460491757010918  0.6111680219777639
  0.5553061871557168  0.4446937528442853  0.6148493004151540
  0.8891400177186162  0.1108599222813861  0.6135691582998157
  0.2230245878505388  0.7769753521494562  0.6111680219777639
  0.5539507642989104  0.7769753521494562  0.6111680219777639
  0.8893875056885635  0.4446937528442853  0.6148493004151540
  0.8891400177186162  0.7782800854372293  0.6135691582998157
  0.0000000000000000  0.0000000000000000  0.5000000000000000
 
  0.00000000E+00  0.00000000E+00  0.00000000E+00
  0.00000000E+00  0.00000000E+00  0.00000000E+00
  0.00000000E+00  0.00000000E+00  0.00000000E+00
  0.00000000E+00  0.00000000E+00  0.00000000E+00
  0.00000000E+00  0.00000000E+00  0.00000000E+00
  0.00000000E+00  0.00000000E+00  0.00000000E+00
  0.00000000E+00  0.00000000E+00  0.00000000E+00
  0.00000000E+00  0.00000000E+00  0.00000000E+00
  0.00000000E+00  0.00000000E+00  0.00000000E+00
  0.00000000E+00  0.00000000E+00  0.00000000E+00
  0.00000000E+00  0.00000000E+00  0.00000000E+00
  0.00000000E+00  0.00000000E+00  0.00000000E+00
  0.00000000E+00  0.00000000E+00  0.00000000E+00
  0.00000000E+00  0.00000000E+00  0.00000000E+00
  0.00000000E+00  0.00000000E+00  0.00000000E+00
  0.00000000E+00  0.00000000E+00  0.00000000E+00
  0.00000000E+00  0.00000000E+00  0.00000000E+00
  0.00000000E+00  0.00000000E+00  0.00000000E+00
  0.00000000E+00  0.00000000E+00  0.00000000E+00
  0.00000000E+00  0.00000000E+00  0.00000000E+00
  0.00000000E+00  0.00000000E+00  0.00000000E+00
  0.00000000E+00  0.00000000E+00  0.00000000E+00
  0.00000000E+00  0.00000000E+00  0.00000000E+00
  0.00000000E+00  0.00000000E+00  0.00000000E+00
  0.00000000E+00  0.00000000E+00  0.00000000E+00
  0.00000000E+00  0.00000000E+00  0.00000000E+00
  0.00000000E+00  0.00000000E+00  0.00000000E+00
  0.00000000E+00  0.00000000E+00  0.00000000E+00
  0.00000000E+00  0.00000000E+00  0.00000000E+00
  0.00000000E+00  0.00000000E+00  0.00000000E+00
  0.00000000E+00  0.00000000E+00  0.00000000E+00
  0.00000000E+00  0.00000000E+00  0.00000000E+00
  0.00000000E+00  0.00000000E+00  0.00000000E+00
  0.00000000E+00  0.00000000E+00  0.00000000E+00
  0.00000000E+00  0.00000000E+00  0.00000000E+00
  0.00000000E+00  0.00000000E+00  0.00000000E+00
  0.00000000E+00  0.00000000E+00  0.00000000E+00
  0.00000000E+00  0.00000000E+00  0.00000000E+00
  0.00000000E+00  0.00000000E+00  0.00000000E+00
  0.00000000E+00  0.00000000E+00  0.00000000E+00
  0.00000000E+00  0.00000000E+00  0.00000000E+00
  0.00000000E+00  0.00000000E+00  0.00000000E+00
  0.00000000E+00  0.00000000E+00  0.00000000E+00
  0.00000000E+00  0.00000000E+00  0.00000000E+00
  0.00000000E+00  0.00000000E+00  0.00000000E+00
  0.00000000E+00  0.00000000E+00  0.00000000E+00
  0.00000000E+00  0.00000000E+00  0.00000000E+00
  0.00000000E+00  0.00000000E+00  0.00000000E+00
  0.00000000E+00  0.00000000E+00  0.00000000E+00
  0.00000000E+00  0.00000000E+00  0.00000000E+00
  0.00000000E+00  0.00000000E+00  0.00000000E+00
  0.00000000E+00  0.00000000E+00  0.00000000E+00
  0.00000000E+00  0.00000000E+00  0.00000000E+00
  0.00000000E+00  0.00000000E+00  0.00000000E+00
  0.00000000E+00  0.00000000E+00  0.00000000E+00
