bilayer
1.0
3.328    0.000    0.000
0.000    3.328    0.000
0.000    0.000    30.5
Mn  Au  W
2  2  4
Direct
0    0    0.47540983606557374
0    0    0.3822950819672131
0.5    0.5    0.42885245901639346
0.5    0.5    0.3357377049180328
0    0    0.5245901639344263
0    0    0.6281967213114754
0.5    0.5    0.5763934426229508
0.5    0.5    0.68
