bilayer
1.0
3.328    0.000    0.000
0.000    3.328    0.000
0.000    0.000    37.92
Au  Mn  W
4  3  6
Direct
0    0    0.4802215189873418
0    0    0.4053270042194093
0    0    0.3304324894514768
0    0    0.25553797468354433
0.5    0.5    0.44277426160337546
0.5    0.5    0.36787974683544306
0.5    0.5    0.2929852320675106
0.5    0.5    0.5197784810126582
0.5    0.5    0.6031118143459916
0.5    0.5    0.6864451476793249
0    0    0.5614451476793249
0    0    0.6447784810126582
0    0    0.7281118143459915
