bilayer
1.0
1.001    0.000    0.000
0.000    1.001    0.000
0.000    0.000    31.655
Mn  Au  W
4  4  4
Direct
0    0    0.4628652661506871
0.5    0.5    0.4628652661506871
0    0    0.3174853893539725
0.5    0.5    0.3174853893539725
0.5    0    0.3901753277523298
0    0.5    0.3901753277523298
0.5    0    0.24479545095561522
0    0.5    0.24479545095561522
0    0    0.5371347338493129
0.5    0.5    0.5371347338493129
0.5    0    0.6129837308482072
0    0.5    0.6129837308482072
